(set-info :source |printed by MathSAT|)
(declare-fun call__DRAGON_.invalid () Int)
(declare-fun call__DRAGON_.shared () Int)
(declare-fun call__DRAGON_.exclusive () Int)
(declare-fun dirty () Int)
(declare-fun call__DRAGON_.ite40 () Int)
(declare-fun param_e08 () Bool)
(declare-fun call__DRAGON_.g04 () Bool)
(declare-fun call__DRAGON_.ite4 () Int)
(declare-fun param_e05 () Bool)
(declare-fun call__DRAGON_.ite28 () Int)
(declare-fun call__DRAGON_.ite20 () Int)
(declare-fun call__DRAGON_.ite5 () Int)
(declare-fun param_e12 () Bool)
(declare-fun call__DRAGON_.g02 () Bool)
(declare-fun call__DRAGON_.ite12 () Int)
(declare-fun call__DRAGON_.mem_init () Int)
(declare-fun call__DRAGON_.ite17 () Int)
(declare-fun call__DRAGON_.flby2 () Int)
(declare-fun call__DRAGON_.ite16 () Int)
(declare-fun call__DRAGON_.ite11 () Int)
(declare-fun shared () Int)
(declare-fun call__DRAGON_.flby () Int)
(declare-fun call__DRAGON_.ite32 () Int)
(declare-fun call__DRAGON_.ite6 () Int)
(declare-fun call__DRAGON_.g08 () Bool)
(declare-fun flby () Bool)
(declare-fun call__DRAGON_.ite58 () Int)
(declare-fun param_e06 () Bool)
(declare-fun call__DRAGON_.ite46 () Int)
(declare-fun param_e07 () Bool)
(declare-fun call__DRAGON_.ite24 () Int)
(declare-fun call__DRAGON_.ite26 () Int)
(declare-fun call__DRAGON_.ite8 () Int)
(declare-fun call_Sofar.flby () Bool)
(declare-fun call__DRAGON_.ite45 () Int)
(declare-fun param_e04 () Bool)
(declare-fun call__DRAGON_.ite30 () Int)
(declare-fun erreur () Bool)
(declare-fun call__DRAGON_.ite61 () Int)
(declare-fun call__DRAGON_.ite55 () Int)
(declare-fun call_Sofar.Sofar () Bool)
(declare-fun call__DRAGON_.ite23 () Int)
(declare-fun call__DRAGON_.ite13 () Int)
(declare-fun call__DRAGON_.flby4 () Int)
(declare-fun call__DRAGON_.ite53 () Int)
(declare-fun call__DRAGON_.ite25 () Int)
(declare-fun call__DRAGON_.ite48 () Int)
(declare-fun call__DRAGON_.ite7 () Int)
(declare-fun call__DRAGON_.ite35 () Int)
(declare-fun call_excludes12.excludes () Bool)
(declare-fun call__DRAGON_.erreur () Bool)
(declare-fun call__DRAGON_.ite33 () Int)
(declare-fun call__DRAGON_.ite27 () Int)
(declare-fun call__DRAGON_.ite21 () Int)
(declare-fun call__DRAGON_.flby5 () Int)
(declare-fun call__DRAGON_.g06 () Bool)
(declare-fun invalid () Int)
(declare-fun call__DRAGON_.ite34 () Int)
(declare-fun call__DRAGON_.ite15 () Int)
(declare-fun call__DRAGON_.ite44 () Int)
(declare-fun shared_dirty () Int)
(declare-fun call__DRAGON_.ite31 () Int)
(declare-fun call__DRAGON_.g05 () Bool)
(declare-fun call__DRAGON_.ite60 () Int)
(declare-fun call__DRAGON_.ite39 () Int)
(declare-fun call__DRAGON_.ite49 () Int)
(declare-fun param_e11 () Bool)
(declare-fun param_e09 () Bool)
(declare-fun call__DRAGON_.ite52 () Int)
(declare-fun call__DRAGON_.ite47 () Int)
(declare-fun call__DRAGON_.ite50 () Int)
(declare-fun call__DRAGON_.ite41 () Int)
(declare-fun exclusive () Int)
(declare-fun call__DRAGON_.ite59 () Int)
(declare-fun call__DRAGON_.ite14 () Int)
(declare-fun param_e02 () Bool)
(declare-fun call__DRAGON_.ite10 () Int)
(declare-fun param_e01 () Bool)
(declare-fun _OK_ () Bool)
(declare-fun call__DRAGON_.ite43 () Int)
(declare-fun call__DRAGON_.ite36 () Int)
(declare-fun call_First.flby () Int)
(declare-fun call__DRAGON_.ite51 () Int)
(declare-fun call__DRAGON_.ite56 () Int)
(declare-fun call__DRAGON_.ite54 () Int)
(declare-fun call__DRAGON_.ite38 () Int)
(declare-fun call__DRAGON_.flby6 () Int)
(declare-fun call__DRAGON_.ite9 () Int)
(declare-fun call__DRAGON_.shared_dirty () Int)
(declare-fun call__DRAGON_.ite18 () Int)
(declare-fun call__DRAGON_.dirty () Int)
(declare-fun call_First.First () Int)
(declare-fun call__DRAGON_.ite () Bool)
(declare-fun call__DRAGON_.ite57 () Int)
(declare-fun call__DRAGON_.ite2 () Int)
(declare-fun call__DRAGON_.ite42 () Int)
(declare-fun param_init_invalid () Int)
(declare-fun param_e03 () Bool)
(declare-fun call__DRAGON_.ite37 () Int)
(declare-fun call__DRAGON_.ite29 () Int)
(declare-fun call__DRAGON_.ite3 () Int)
(declare-fun env () Bool)
(declare-fun call__DRAGON_.flby3 () Int)
(declare-fun call__DRAGON_.ite22 () Int)
(declare-fun call__DRAGON_.ite19 () Int)
(declare-fun param_e10 () Bool)
(define-fun .def_1830 () Bool (= call_First.flby call_First.First))
(define-fun .def_1828 () Bool (= call_Sofar.flby call_Sofar.Sofar))
(define-fun .def_1637 () Bool (not param_e02))
(define-fun .def_1618 () Bool (not param_e01))
(define-fun .def_1726 () Bool (and .def_1618 .def_1637))
(define-fun .def_1678 () Bool (not param_e03))
(define-fun .def_1727 () Bool (and .def_1678 .def_1726))
(define-fun .def_1694 () Bool (not param_e04))
(define-fun .def_1728 () Bool (and .def_1694 .def_1727))
(define-fun .def_1466 () Bool (not param_e05))
(define-fun .def_1729 () Bool (and .def_1466 .def_1728))
(define-fun .def_1448 () Bool (not param_e06))
(define-fun .def_1730 () Bool (and .def_1448 .def_1729))
(define-fun .def_1483 () Bool (not param_e07))
(define-fun .def_1731 () Bool (and .def_1483 .def_1730))
(define-fun .def_1502 () Bool (not param_e08))
(define-fun .def_1732 () Bool (and .def_1502 .def_1731))
(define-fun .def_1339 () Bool (not param_e09))
(define-fun .def_1733 () Bool (and .def_1339 .def_1732))
(define-fun .def_1347 () Bool (not param_e10))
(define-fun .def_1734 () Bool (and .def_1347 .def_1733))
(define-fun .def_1354 () Bool (not param_e11))
(define-fun .def_1735 () Bool (and .def_1354 .def_1734))
(define-fun .def_1361 () Bool (not param_e12))
(define-fun .def_1813 () Bool (and .def_1361 .def_1735))
(define-fun .def_1802 () Bool (and param_e01 .def_1637))
(define-fun .def_1803 () Bool (and .def_1678 .def_1802))
(define-fun .def_1804 () Bool (and .def_1694 .def_1803))
(define-fun .def_1805 () Bool (and .def_1466 .def_1804))
(define-fun .def_1806 () Bool (and .def_1448 .def_1805))
(define-fun .def_1807 () Bool (and .def_1483 .def_1806))
(define-fun .def_1808 () Bool (and .def_1502 .def_1807))
(define-fun .def_1809 () Bool (and .def_1339 .def_1808))
(define-fun .def_1810 () Bool (and .def_1347 .def_1809))
(define-fun .def_1811 () Bool (and .def_1354 .def_1810))
(define-fun .def_1812 () Bool (and .def_1361 .def_1811))
(define-fun .def_1814 () Bool (or .def_1812 .def_1813))
(define-fun .def_1791 () Bool (and .def_1618 param_e02))
(define-fun .def_1792 () Bool (and .def_1678 .def_1791))
(define-fun .def_1793 () Bool (and .def_1694 .def_1792))
(define-fun .def_1794 () Bool (and .def_1466 .def_1793))
(define-fun .def_1795 () Bool (and .def_1448 .def_1794))
(define-fun .def_1796 () Bool (and .def_1483 .def_1795))
(define-fun .def_1797 () Bool (and .def_1502 .def_1796))
(define-fun .def_1798 () Bool (and .def_1339 .def_1797))
(define-fun .def_1799 () Bool (and .def_1347 .def_1798))
(define-fun .def_1800 () Bool (and .def_1354 .def_1799))
(define-fun .def_1801 () Bool (and .def_1361 .def_1800))
(define-fun .def_1815 () Bool (or .def_1801 .def_1814))
(define-fun .def_1781 () Bool (and param_e03 .def_1726))
(define-fun .def_1782 () Bool (and .def_1694 .def_1781))
(define-fun .def_1783 () Bool (and .def_1466 .def_1782))
(define-fun .def_1784 () Bool (and .def_1448 .def_1783))
(define-fun .def_1785 () Bool (and .def_1483 .def_1784))
(define-fun .def_1786 () Bool (and .def_1502 .def_1785))
(define-fun .def_1787 () Bool (and .def_1339 .def_1786))
(define-fun .def_1788 () Bool (and .def_1347 .def_1787))
(define-fun .def_1789 () Bool (and .def_1354 .def_1788))
(define-fun .def_1790 () Bool (and .def_1361 .def_1789))
(define-fun .def_1816 () Bool (or .def_1790 .def_1815))
(define-fun .def_1772 () Bool (and param_e04 .def_1727))
(define-fun .def_1773 () Bool (and .def_1466 .def_1772))
(define-fun .def_1774 () Bool (and .def_1448 .def_1773))
(define-fun .def_1775 () Bool (and .def_1483 .def_1774))
(define-fun .def_1776 () Bool (and .def_1502 .def_1775))
(define-fun .def_1777 () Bool (and .def_1339 .def_1776))
(define-fun .def_1778 () Bool (and .def_1347 .def_1777))
(define-fun .def_1779 () Bool (and .def_1354 .def_1778))
(define-fun .def_1780 () Bool (and .def_1361 .def_1779))
(define-fun .def_1817 () Bool (or .def_1780 .def_1816))
(define-fun .def_1764 () Bool (and param_e05 .def_1728))
(define-fun .def_1765 () Bool (and .def_1448 .def_1764))
(define-fun .def_1766 () Bool (and .def_1483 .def_1765))
(define-fun .def_1767 () Bool (and .def_1502 .def_1766))
(define-fun .def_1768 () Bool (and .def_1339 .def_1767))
(define-fun .def_1769 () Bool (and .def_1347 .def_1768))
(define-fun .def_1770 () Bool (and .def_1354 .def_1769))
(define-fun .def_1771 () Bool (and .def_1361 .def_1770))
(define-fun .def_1818 () Bool (or .def_1771 .def_1817))
(define-fun .def_1757 () Bool (and param_e06 .def_1729))
(define-fun .def_1758 () Bool (and .def_1483 .def_1757))
(define-fun .def_1759 () Bool (and .def_1502 .def_1758))
(define-fun .def_1760 () Bool (and .def_1339 .def_1759))
(define-fun .def_1761 () Bool (and .def_1347 .def_1760))
(define-fun .def_1762 () Bool (and .def_1354 .def_1761))
(define-fun .def_1763 () Bool (and .def_1361 .def_1762))
(define-fun .def_1819 () Bool (or .def_1763 .def_1818))
(define-fun .def_1751 () Bool (and param_e07 .def_1730))
(define-fun .def_1752 () Bool (and .def_1502 .def_1751))
(define-fun .def_1753 () Bool (and .def_1339 .def_1752))
(define-fun .def_1754 () Bool (and .def_1347 .def_1753))
(define-fun .def_1755 () Bool (and .def_1354 .def_1754))
(define-fun .def_1756 () Bool (and .def_1361 .def_1755))
(define-fun .def_1820 () Bool (or .def_1756 .def_1819))
(define-fun .def_1746 () Bool (and param_e08 .def_1731))
(define-fun .def_1747 () Bool (and .def_1339 .def_1746))
(define-fun .def_1748 () Bool (and .def_1347 .def_1747))
(define-fun .def_1749 () Bool (and .def_1354 .def_1748))
(define-fun .def_1750 () Bool (and .def_1361 .def_1749))
(define-fun .def_1821 () Bool (or .def_1750 .def_1820))
(define-fun .def_1742 () Bool (and param_e09 .def_1732))
(define-fun .def_1743 () Bool (and .def_1347 .def_1742))
(define-fun .def_1744 () Bool (and .def_1354 .def_1743))
(define-fun .def_1745 () Bool (and .def_1361 .def_1744))
(define-fun .def_1822 () Bool (or .def_1745 .def_1821))
(define-fun .def_1739 () Bool (and param_e10 .def_1733))
(define-fun .def_1740 () Bool (and .def_1354 .def_1739))
(define-fun .def_1741 () Bool (and .def_1361 .def_1740))
(define-fun .def_1823 () Bool (or .def_1741 .def_1822))
(define-fun .def_1737 () Bool (and param_e11 .def_1734))
(define-fun .def_1738 () Bool (and .def_1361 .def_1737))
(define-fun .def_1824 () Bool (or .def_1738 .def_1823))
(define-fun .def_1736 () Bool (and param_e12 .def_1735))
(define-fun .def_1825 () Bool (or .def_1736 .def_1824))
(define-fun .def_1826 () Bool (= call_excludes12.excludes .def_1825))
(define-fun .def_1724 () Bool (= call__DRAGON_.mem_init call__DRAGON_.flby))
(define-fun .def_1722 () Bool (= call__DRAGON_.erreur call__DRAGON_.ite))
(define-fun .def_1720 () Bool (= call__DRAGON_.flby6 call__DRAGON_.invalid))
(define-fun .def_1718 () Bool (= call__DRAGON_.flby5 call__DRAGON_.dirty))
(define-fun .def_1716 () Bool (= call__DRAGON_.flby4 call__DRAGON_.shared_dirty))
(define-fun .def_1714 () Bool (= call__DRAGON_.flby3 call__DRAGON_.shared))
(define-fun .def_1711 () Bool (= call__DRAGON_.flby2 call__DRAGON_.exclusive))
(define-fun .def_1706 () Bool (<= 2 call__DRAGON_.exclusive))
(define-fun .def_1708 () Bool (not .def_1706))
(define-fun .def_1709 () Bool (or call__DRAGON_.ite .def_1708))
(define-fun .def_1705 () Bool (not call__DRAGON_.ite))
(define-fun .def_1707 () Bool (or .def_1705 .def_1706))
(define-fun .def_1710 () Bool (and .def_1707 .def_1709))
(define-fun .def_1712 () Bool (and .def_1710 .def_1711))
(define-fun .def_1700 () Bool (= call__DRAGON_.ite29 call__DRAGON_.ite30))
(define-fun .def_1701 () Bool (or param_e04 .def_1700))
(define-fun .def_1697 () Bool (= call__DRAGON_.ite23 call__DRAGON_.ite30))
(define-fun .def_1698 () Bool (or .def_1694 .def_1697))
(define-fun .def_1693 () Bool (= call__DRAGON_.ite43 call__DRAGON_.ite34))
(define-fun .def_1695 () Bool (or .def_1693 .def_1694))
(define-fun .def_1689 () Bool (= call__DRAGON_.ite42 call__DRAGON_.ite43))
(define-fun .def_1691 () Bool (or .def_1689 param_e04))
(define-fun .def_1696 () Bool (and .def_1691 .def_1695))
(define-fun .def_1699 () Bool (and .def_1696 .def_1698))
(define-fun .def_1702 () Bool (and .def_1699 .def_1701))
(define-fun .def_1685 () Bool (= call__DRAGON_.ite8 call__DRAGON_.ite9))
(define-fun .def_1686 () Bool (or param_e03 .def_1685))
(define-fun .def_1682 () Bool (= call__DRAGON_.ite9 call__DRAGON_.ite4))
(define-fun .def_1683 () Bool (or .def_1678 .def_1682))
(define-fun .def_1677 () Bool (= call__DRAGON_.ite44 call__DRAGON_.ite33))
(define-fun .def_1679 () Bool (or .def_1677 .def_1678))
(define-fun .def_1673 () Bool (= call__DRAGON_.ite44 call__DRAGON_.ite43))
(define-fun .def_1675 () Bool (or .def_1673 param_e03))
(define-fun .def_1680 () Bool (and .def_1675 .def_1679))
(define-fun .def_1684 () Bool (and .def_1680 .def_1683))
(define-fun .def_1687 () Bool (and .def_1684 .def_1686))
(define-fun .def_1668 () Bool (= call__DRAGON_.ite31 call__DRAGON_.ite30))
(define-fun .def_1669 () Bool (or param_e02 .def_1668))
(define-fun .def_1664 () Bool (= call__DRAGON_.ite22 call__DRAGON_.ite31))
(define-fun .def_1665 () Bool (or .def_1637 .def_1664))
(define-fun .def_1659 () Bool (= call__DRAGON_.ite20 call__DRAGON_.ite21))
(define-fun .def_1660 () Bool (or param_e02 .def_1659))
(define-fun .def_1656 () Bool (= call__DRAGON_.ite12 call__DRAGON_.ite21))
(define-fun .def_1657 () Bool (or .def_1637 .def_1656))
(define-fun .def_1651 () Bool (= call__DRAGON_.ite10 call__DRAGON_.ite9))
(define-fun .def_1652 () Bool (or param_e02 .def_1651))
(define-fun .def_1647 () Bool (= call__DRAGON_.ite3 call__DRAGON_.ite10))
(define-fun .def_1648 () Bool (or .def_1637 .def_1647))
(define-fun .def_1644 () Bool (= call__DRAGON_.ite59 call__DRAGON_.ite60))
(define-fun .def_1645 () Bool (or param_e02 .def_1644))
(define-fun .def_1641 () Bool (= call__DRAGON_.ite60 call__DRAGON_.ite47))
(define-fun .def_1642 () Bool (or .def_1637 .def_1641))
(define-fun .def_1636 () Bool (= call__DRAGON_.ite32 call__DRAGON_.ite45))
(define-fun .def_1638 () Bool (or .def_1636 .def_1637))
(define-fun .def_1633 () Bool (= call__DRAGON_.ite45 call__DRAGON_.ite44))
(define-fun .def_1635 () Bool (or .def_1633 param_e02))
(define-fun .def_1639 () Bool (and .def_1635 .def_1638))
(define-fun .def_1643 () Bool (and .def_1639 .def_1642))
(define-fun .def_1646 () Bool (and .def_1643 .def_1645))
(define-fun .def_1649 () Bool (and .def_1646 .def_1648))
(define-fun .def_1653 () Bool (and .def_1649 .def_1652))
(define-fun .def_1658 () Bool (and .def_1653 .def_1657))
(define-fun .def_1661 () Bool (and .def_1658 .def_1660))
(define-fun .def_1666 () Bool (and .def_1661 .def_1665))
(define-fun .def_1670 () Bool (and .def_1666 .def_1669))
(define-fun .def_1627 () Bool (= call__DRAGON_.ite11 call__DRAGON_.ite10))
(define-fun .def_1628 () Bool (or param_e01 .def_1627))
(define-fun .def_1623 () Bool (= call__DRAGON_.ite2 call__DRAGON_.ite11))
(define-fun .def_1624 () Bool (or .def_1618 .def_1623))
(define-fun .def_1617 () Bool (= call__DRAGON_.ite61 call__DRAGON_.ite46))
(define-fun .def_1619 () Bool (or .def_1617 .def_1618))
(define-fun .def_1613 () Bool (= call__DRAGON_.ite61 call__DRAGON_.ite60))
(define-fun .def_1615 () Bool (or .def_1613 param_e01))
(define-fun .def_1620 () Bool (and .def_1615 .def_1619))
(define-fun .def_1625 () Bool (and .def_1620 .def_1624))
(define-fun .def_1629 () Bool (and .def_1625 .def_1628))
(define-fun .def_1607 () Bool (= call__DRAGON_.ite55 call__DRAGON_.ite52))
(define-fun .def_1608 () Bool (or .def_1354 .def_1607))
(define-fun .def_1604 () Bool (= call__DRAGON_.ite54 call__DRAGON_.ite55))
(define-fun .def_1605 () Bool (or param_e11 .def_1604))
(define-fun .def_1609 () Bool (and .def_1605 .def_1608))
(define-fun .def_1600 () Bool (= call__DRAGON_.ite56 call__DRAGON_.ite51))
(define-fun .def_1601 () Bool (or .def_1347 .def_1600))
(define-fun .def_1597 () Bool (= call__DRAGON_.ite56 call__DRAGON_.ite55))
(define-fun .def_1598 () Bool (or param_e10 .def_1597))
(define-fun .def_1602 () Bool (and .def_1598 .def_1601))
(define-fun .def_1592 () Bool (= call__DRAGON_.ite57 call__DRAGON_.ite50))
(define-fun .def_1593 () Bool (or .def_1339 .def_1592))
(define-fun .def_1589 () Bool (= call__DRAGON_.ite57 call__DRAGON_.ite56))
(define-fun .def_1590 () Bool (or param_e09 .def_1589))
(define-fun .def_1594 () Bool (and .def_1590 .def_1593))
(define-fun .def_1586 () Bool (= env call_Sofar.Sofar))
(define-fun .def_1583 () Bool (= erreur call__DRAGON_.erreur))
(define-fun .def_1580 () Bool (= invalid call__DRAGON_.invalid))
(define-fun .def_1577 () Bool (= dirty call__DRAGON_.dirty))
(define-fun .def_1574 () Bool (= shared_dirty call__DRAGON_.shared_dirty))
(define-fun .def_1571 () Bool (= shared call__DRAGON_.shared))
(define-fun .def_1568 () Bool (= exclusive call__DRAGON_.exclusive))
(define-fun .def_1562 () Bool (<= 0 exclusive))
(define-fun .def_1554 () Int (* (- 1) call_First.First))
(define-fun .def_1555 () Int (+ invalid .def_1554))
(define-fun .def_1556 () Int (+ dirty .def_1555))
(define-fun .def_1557 () Int (+ shared_dirty .def_1556))
(define-fun .def_1558 () Int (+ shared .def_1557))
(define-fun .def_1559 () Int (+ exclusive .def_1558))
(define-fun .def_1560 () Bool (= .def_1559 0))
(define-fun .def_1536 () Bool (not erreur))
(define-fun .def_1537 () Bool (and flby .def_1536))
(define-fun .def_1561 () Bool (and .def_1537 .def_1560))
(define-fun .def_1563 () Bool (and .def_1561 .def_1562))
(define-fun .def_1534 () Bool (not env))
(define-fun .def_1564 () Bool (or .def_1534 .def_1563))
(define-fun .def_1565 () Bool (= _OK_ .def_1564))
(define-fun .def_1528 () Bool (= call__DRAGON_.ite39 call__DRAGON_.ite40))
(define-fun .def_1529 () Bool (or param_e08 .def_1528))
(define-fun .def_1525 () Bool (= call__DRAGON_.ite37 call__DRAGON_.ite40))
(define-fun .def_1526 () Bool (or .def_1502 .def_1525))
(define-fun .def_1522 () Bool (= call__DRAGON_.ite27 call__DRAGON_.ite28))
(define-fun .def_1523 () Bool (or param_e08 .def_1522))
(define-fun .def_1519 () Bool (= call__DRAGON_.ite25 call__DRAGON_.ite28))
(define-fun .def_1520 () Bool (or .def_1502 .def_1519))
(define-fun .def_1516 () Bool (= call__DRAGON_.ite17 call__DRAGON_.ite18))
(define-fun .def_1517 () Bool (or param_e08 .def_1516))
(define-fun .def_1513 () Bool (= call__DRAGON_.ite18 call__DRAGON_.ite15))
(define-fun .def_1514 () Bool (or .def_1502 .def_1513))
(define-fun .def_1509 () Bool (= call__DRAGON_.ite7 call__DRAGON_.ite8))
(define-fun .def_1510 () Bool (or param_e08 .def_1509))
(define-fun .def_1506 () Bool (= call__DRAGON_.ite5 call__DRAGON_.ite8))
(define-fun .def_1507 () Bool (or .def_1502 .def_1506))
(define-fun .def_1501 () Bool (= call__DRAGON_.ite58 call__DRAGON_.ite49))
(define-fun .def_1503 () Bool (or .def_1501 .def_1502))
(define-fun .def_1497 () Bool (= call__DRAGON_.ite58 call__DRAGON_.ite57))
(define-fun .def_1499 () Bool (or .def_1497 param_e08))
(define-fun .def_1504 () Bool (and .def_1499 .def_1503))
(define-fun .def_1508 () Bool (and .def_1504 .def_1507))
(define-fun .def_1511 () Bool (and .def_1508 .def_1510))
(define-fun .def_1515 () Bool (and .def_1511 .def_1514))
(define-fun .def_1518 () Bool (and .def_1515 .def_1517))
(define-fun .def_1521 () Bool (and .def_1518 .def_1520))
(define-fun .def_1524 () Bool (and .def_1521 .def_1523))
(define-fun .def_1527 () Bool (and .def_1524 .def_1526))
(define-fun .def_1530 () Bool (and .def_1527 .def_1529))
(define-fun .def_1492 () Bool (= call__DRAGON_.ite59 call__DRAGON_.ite58))
(define-fun .def_1493 () Bool (or param_e07 .def_1492))
(define-fun .def_1488 () Bool (= call__DRAGON_.ite48 call__DRAGON_.ite59))
(define-fun .def_1489 () Bool (or .def_1483 .def_1488))
(define-fun .def_1482 () Bool (= call__DRAGON_.ite41 call__DRAGON_.ite36))
(define-fun .def_1484 () Bool (or .def_1482 .def_1483))
(define-fun .def_1478 () Bool (= call__DRAGON_.ite41 call__DRAGON_.ite40))
(define-fun .def_1480 () Bool (or .def_1478 param_e07))
(define-fun .def_1485 () Bool (and .def_1480 .def_1484))
(define-fun .def_1490 () Bool (and .def_1485 .def_1489))
(define-fun .def_1494 () Bool (and .def_1490 .def_1493))
(define-fun .def_1473 () Bool (= call__DRAGON_.ite19 call__DRAGON_.ite20))
(define-fun .def_1474 () Bool (or param_e05 .def_1473))
(define-fun .def_1470 () Bool (= call__DRAGON_.ite13 call__DRAGON_.ite20))
(define-fun .def_1471 () Bool (or .def_1466 .def_1470))
(define-fun .def_1465 () Bool (= call__DRAGON_.ite42 call__DRAGON_.ite35))
(define-fun .def_1467 () Bool (or .def_1465 .def_1466))
(define-fun .def_1461 () Bool (= call__DRAGON_.ite41 call__DRAGON_.ite42))
(define-fun .def_1463 () Bool (or .def_1461 param_e05))
(define-fun .def_1468 () Bool (and .def_1463 .def_1467))
(define-fun .def_1472 () Bool (and .def_1468 .def_1471))
(define-fun .def_1475 () Bool (and .def_1472 .def_1474))
(define-fun .def_1456 () Bool (= call__DRAGON_.ite29 call__DRAGON_.ite28))
(define-fun .def_1457 () Bool (or param_e06 .def_1456))
(define-fun .def_1452 () Bool (= call__DRAGON_.ite24 call__DRAGON_.ite29))
(define-fun .def_1453 () Bool (or .def_1448 .def_1452))
(define-fun .def_1447 () Bool (= call__DRAGON_.ite19 call__DRAGON_.ite14))
(define-fun .def_1449 () Bool (or .def_1447 .def_1448))
(define-fun .def_1443 () Bool (= call__DRAGON_.ite19 call__DRAGON_.ite18))
(define-fun .def_1445 () Bool (or .def_1443 param_e06))
(define-fun .def_1450 () Bool (and .def_1445 .def_1449))
(define-fun .def_1454 () Bool (and .def_1450 .def_1453))
(define-fun .def_1458 () Bool (and .def_1454 .def_1457))
(define-fun .def_1476 () Bool (and .def_1458 .def_1475))
(define-fun .def_1495 () Bool (and .def_1476 .def_1494))
(define-fun .def_1531 () Bool (and .def_1495 .def_1530))
(define-fun .def_1566 () Bool (and .def_1531 .def_1565))
(define-fun .def_1569 () Bool (and .def_1566 .def_1568))
(define-fun .def_1572 () Bool (and .def_1569 .def_1571))
(define-fun .def_1575 () Bool (and .def_1572 .def_1574))
(define-fun .def_1578 () Bool (and .def_1575 .def_1577))
(define-fun .def_1581 () Bool (and .def_1578 .def_1580))
(define-fun .def_1584 () Bool (and .def_1581 .def_1583))
(define-fun .def_1587 () Bool (and .def_1584 .def_1586))
(define-fun .def_1595 () Bool (and .def_1587 .def_1594))
(define-fun .def_1603 () Bool (and .def_1595 .def_1602))
(define-fun .def_1610 () Bool (and .def_1603 .def_1609))
(define-fun .def_1630 () Bool (and .def_1610 .def_1629))
(define-fun .def_1671 () Bool (and .def_1630 .def_1670))
(define-fun .def_1688 () Bool (and .def_1671 .def_1687))
(define-fun .def_1703 () Bool (and .def_1688 .def_1702))
(define-fun .def_1713 () Bool (and .def_1703 .def_1712))
(define-fun .def_1715 () Bool (and .def_1713 .def_1714))
(define-fun .def_1717 () Bool (and .def_1715 .def_1716))
(define-fun .def_1719 () Bool (and .def_1717 .def_1718))
(define-fun .def_1721 () Bool (and .def_1719 .def_1720))
(define-fun .def_1723 () Bool (and .def_1721 .def_1722))
(define-fun .def_1725 () Bool (and .def_1723 .def_1724))
(define-fun .def_1827 () Bool (and .def_1725 .def_1826))
(define-fun .def_1829 () Bool (and .def_1827 .def_1828))
(define-fun .def_1831 () Bool (and .def_1829 .def_1830))
(define-fun .def_1439 () Bool (= param_init_invalid call_First.flby))
(define-fun .def_1431 () Bool (<= param_init_invalid 0))
(define-fun .def_1432 () Bool (not .def_1431))
(define-fun .def_1434 () Bool (and .def_1432 call_excludes12.excludes))
(define-fun .def_1436 () Bool (= .def_1434 call_Sofar.flby))
(define-fun .def_1429 () Bool (= call__DRAGON_.flby4 0))
(define-fun .def_1426 () Bool (= call__DRAGON_.flby3 0))
(define-fun .def_1423 () Bool (= call__DRAGON_.flby2 0))
(define-fun .def_1420 () Bool (= param_init_invalid call__DRAGON_.flby))
(define-fun .def_1414 () Bool (= call__DRAGON_.ite37 0))
(define-fun .def_1407 () Bool (not call__DRAGON_.g08))
(define-fun .def_1415 () Bool (or .def_1407 .def_1414))
(define-fun .def_1410 () Bool (= call__DRAGON_.ite5 0))
(define-fun .def_1411 () Bool (or .def_1407 .def_1410))
(define-fun .def_1405 () Bool (= call__DRAGON_.ite25 1))
(define-fun .def_1408 () Bool (or .def_1405 .def_1407))
(define-fun .def_1412 () Bool (and .def_1408 .def_1411))
(define-fun .def_1416 () Bool (and .def_1412 .def_1415))
(define-fun .def_1401 () Bool (= call__DRAGON_.ite24 1))
(define-fun .def_1399 () Bool (not call__DRAGON_.g06))
(define-fun .def_1402 () Bool (or .def_1399 .def_1401))
(define-fun .def_1395 () Bool (= call__DRAGON_.ite13 0))
(define-fun .def_1393 () Bool (not call__DRAGON_.g05))
(define-fun .def_1396 () Bool (or .def_1393 .def_1395))
(define-fun .def_1389 () Bool (= call__DRAGON_.ite23 0))
(define-fun .def_1387 () Bool (not call__DRAGON_.g04))
(define-fun .def_1390 () Bool (or .def_1387 .def_1389))
(define-fun .def_1382 () Bool (= call__DRAGON_.ite3 0))
(define-fun .def_1379 () Bool (not call__DRAGON_.g02))
(define-fun .def_1383 () Bool (or .def_1379 .def_1382))
(define-fun .def_1377 () Bool (= call__DRAGON_.ite32 0))
(define-fun .def_1380 () Bool (or .def_1377 .def_1379))
(define-fun .def_1384 () Bool (and .def_1380 .def_1383))
(define-fun .def_1374 () Bool (= call__DRAGON_.flby6 call__DRAGON_.mem_init))
(define-fun .def_1370 () Bool (= call__DRAGON_.flby5 0))
(define-fun .def_1365 () Bool (= call__DRAGON_.ite53 call__DRAGON_.ite54))
(define-fun .def_1366 () Bool (or .def_1361 .def_1365))
(define-fun .def_1359 () Bool (= call__DRAGON_.ite6 call__DRAGON_.ite7))
(define-fun .def_1362 () Bool (or .def_1359 .def_1361))
(define-fun .def_1367 () Bool (and .def_1362 .def_1366))
(define-fun .def_1352 () Bool (= call__DRAGON_.ite26 call__DRAGON_.ite27))
(define-fun .def_1355 () Bool (or .def_1352 .def_1354))
(define-fun .def_1345 () Bool (= call__DRAGON_.ite16 call__DRAGON_.ite17))
(define-fun .def_1348 () Bool (or .def_1345 .def_1347))
(define-fun .def_1337 () Bool (= call__DRAGON_.ite38 call__DRAGON_.ite39))
(define-fun .def_1340 () Bool (or .def_1337 .def_1339))
(define-fun .def_1342 () Bool (and .def_1340 flby))
(define-fun .def_1349 () Bool (and .def_1342 .def_1348))
(define-fun .def_1356 () Bool (and .def_1349 .def_1355))
(define-fun .def_1368 () Bool (and .def_1356 .def_1367))
(define-fun .def_1371 () Bool (and .def_1368 .def_1370))
(define-fun .def_1375 () Bool (and .def_1371 .def_1374))
(define-fun .def_1385 () Bool (and .def_1375 .def_1384))
(define-fun .def_1391 () Bool (and .def_1385 .def_1390))
(define-fun .def_1397 () Bool (and .def_1391 .def_1396))
(define-fun .def_1403 () Bool (and .def_1397 .def_1402))
(define-fun .def_1417 () Bool (and .def_1403 .def_1416))
(define-fun .def_1421 () Bool (and .def_1417 .def_1420))
(define-fun .def_1424 () Bool (and .def_1421 .def_1423))
(define-fun .def_1427 () Bool (and .def_1424 .def_1426))
(define-fun .def_1430 () Bool (and .def_1427 .def_1429))
(define-fun .def_1437 () Bool (and .def_1430 .def_1436))
(define-fun .def_1440 () Bool (and .def_1437 .def_1439))
(define-fun .def_1832 () Bool (and .def_1440 .def_1831))
(assert .def_1832)
